language Essence 1.3
$ generated by bacp-gen.pl with seed 1058338582
$ edge probability 0.0373
$ course loads in range 2..8
letting n_courses be 172
letting n_periods be 26
letting load_per_period_lb be 5
letting load_per_period_ub be 49
letting courses_per_period_lb be 3
letting courses_per_period_ub be 10
letting course_load be function(
1 --> 6,
2 --> 5,
3 --> 4,
4 --> 2,
5 --> 3,
6 --> 7,
7 --> 2,
8 --> 6,
9 --> 2,
10 --> 4,
11 --> 3,
12 --> 3,
13 --> 7,
14 --> 3,
15 --> 2,
16 --> 5,
17 --> 8,
18 --> 5,
19 --> 7,
20 --> 3,
21 --> 3,
22 --> 4,
23 --> 3,
24 --> 7,
25 --> 6,
26 --> 3,
27 --> 7,
28 --> 5,
29 --> 2,
30 --> 8,
31 --> 5,
32 --> 5,
33 --> 2,
34 --> 5,
35 --> 7,
36 --> 3,
37 --> 4,
38 --> 3,
39 --> 5,
40 --> 8,
41 --> 7,
42 --> 7,
43 --> 3,
44 --> 2,
45 --> 6,
46 --> 4,
47 --> 3,
48 --> 5,
49 --> 2,
50 --> 3,
51 --> 3,
52 --> 8,
53 --> 7,
54 --> 4,
55 --> 3,
56 --> 4,
57 --> 4,
58 --> 5,
59 --> 2,
60 --> 6,
61 --> 7,
62 --> 4,
63 --> 3,
64 --> 6,
65 --> 6,
66 --> 2,
67 --> 6,
68 --> 5,
69 --> 8,
70 --> 6,
71 --> 5,
72 --> 3,
73 --> 5,
74 --> 2,
75 --> 7,
76 --> 8,
77 --> 7,
78 --> 3,
79 --> 8,
80 --> 4,
81 --> 8,
82 --> 7,
83 --> 8,
84 --> 2,
85 --> 6,
86 --> 5,
87 --> 6,
88 --> 5,
89 --> 7,
90 --> 5,
91 --> 4,
92 --> 8,
93 --> 3,
94 --> 5,
95 --> 3,
96 --> 3,
97 --> 5,
98 --> 7,
99 --> 3,
100 --> 3,
101 --> 4,
102 --> 4,
103 --> 5,
104 --> 5,
105 --> 2,
106 --> 5,
107 --> 7,
108 --> 3,
109 --> 3,
110 --> 3,
111 --> 2,
112 --> 6,
113 --> 8,
114 --> 5,
115 --> 5,
116 --> 6,
117 --> 7,
118 --> 3,
119 --> 2,
120 --> 2,
121 --> 3,
122 --> 4,
123 --> 8,
124 --> 2,
125 --> 7,
126 --> 7,
127 --> 5,
128 --> 3,
129 --> 2,
130 --> 6,
131 --> 8,
132 --> 2,
133 --> 3,
134 --> 2,
135 --> 4,
136 --> 3,
137 --> 3,
138 --> 6,
139 --> 2,
140 --> 5,
141 --> 4,
142 --> 3,
143 --> 5,
144 --> 3,
145 --> 4,
146 --> 4,
147 --> 5,
148 --> 7,
149 --> 6,
150 --> 6,
151 --> 7,
152 --> 5,
153 --> 4,
154 --> 4,
155 --> 7,
156 --> 3,
157 --> 5,
158 --> 3,
159 --> 6,
160 --> 5,
161 --> 3,
162 --> 6,
163 --> 2,
164 --> 3,
165 --> 4,
166 --> 6,
167 --> 3,
168 --> 7,
169 --> 4,
170 --> 2,
171 --> 6,
172 --> 6
)
letting prerequisite be relation (
(47,53),
(38,54),
(39,55),
(22,56),
(8,57),
(19,58),
(39,59),
(37,60),
(12,61),
(8,62),
(11,63),
(33,64),
(30,65),
(34,66),
(33,67),
(34,68),
(18,69),
(23,70),
(32,71),
(29,72),
(28,73),
(18,74),
(38,75),
(34,76),
(19,77),
(25,78),
(20,79),
(43,80),
(6,81),
(34,82),
(28,83),
(17,84),
(30,85),
(11,86),
(33,87),
(17,88),
(52,89),
(8,90),
(34,91),
(33,92),
(44,93),
(12,94),
(46,95),
(49,96),
(14,97),
(21,98),
(41,99),
(37,100),
(19,101),
(6,102),
(9,103),
(23,104),
(20,105),
(48,106),
(24,107),
(34,108),
(4,109),
(5,110),
(49,111),
(52,112),
(24,113),
(13,114),
(2,115),
(19,116),
(20,117),
(1,118),
(48,119),
(9,120),
(19,121),
(22,122),
(10,123),
(9,124),
(32,125),
(17,126),
(46,127),
(98,128),
(99,129),
(103,130),
(60,131),
(122,132),
(80,133),
(113,134),
(86,135),
(77,136),
(95,137),
(96,138),
(81,139),
(119,140),
(105,141),
(92,142),
(61,143),
(113,144),
(83,145),
(94,146),
(99,147),
(84,148),
(84,149),
(79,150),
(58,151),
(106,152),
(83,153),
(89,154),
(120,155),
(85,156),
(63,157),
(73,158),
(99,159),
(125,160),
(104,161),
(64,162),
(111,163),
(93,164),
(80,165),
(122,166),
(87,167),
(103,168),
(107,169),
(100,170),
(90,171),
(65,172),
(63,144),
(13,75),
(34,71),
(122,144),
(62,155),
(31,127),
(99,165),
(58,137),
(23,123),
(118,172),
(30,114),
(111,132),
(119,154),
(89,134),
(14,69),
(75,133),
(2,68),
(110,169),
(118,146),
(85,159),
(16,73),
(57,172),
(101,162),
(116,165),
(9,62),
(38,117),
(16,105),
(87,169),
(104,169),
(63,139),
(11,100),
(81,131),
(86,156),
(37,122),
(68,129),
(26,57),
(35,62),
(63,131),
(31,89),
(60,148),
(110,170),
(26,63),
(75,153),
(89,155),
(103,146),
(33,65),
(49,94),
(113,149),
(74,135),
(34,88),
(38,87),
(124,164),
(104,146),
(95,154),
(48,77),
(47,90),
(111,133),
(49,97),
(120,133),
(54,168),
(35,65),
(113,168),
(23,111),
(1,116),
(114,134),
(58,131),
(80,135),
(6,86),
(14,117),
(4,123),
(35,114),
(111,152),
(26,88),
(65,130),
(67,144),
(67,141),
(50,84),
(56,155),
(39,105),
(61,166),
(30,55),
(74,157),
(116,138),
(12,82),
(106,169),
(42,108),
(70,166),
(15,118),
(108,159),
(103,157),
(63,169),
(78,151),
(123,144),
(77,152),
(102,154),
(43,54),
(70,133),
(9,74),
(48,125),
(4,85),
(101,128),
(113,158),
(59,166),
(67,151),
(21,100),
(34,58),
(57,129),
(53,135),
(34,110),
(36,102),
(90,166),
(22,85),
(115,130),
(97,130),
(18,119),
(32,116),
(14,109),
(32,99),
(57,166),
(102,131),
(102,168),
(52,78),
(59,145),
(76,133),
(88,145),
(79,167),
(3,111),
(70,136),
(94,144),
(40,56),
(14,65),
(23,92),
(116,153),
(20,122),
(38,108),
(79,135),
(67,142),
(35,100),
(62,169),
(10,127),
(71,154),
(95,128),
(12,95),
(88,172),
(59,168),
(94,155),
(116,169),
(47,104),
(1,109),
(10,115),
(38,105)
)

